7886
7816
7947
7848
7921
7826
7889
7805
7902
7821
7941
7889
7827
7763
7903
7816
7904
7833
7781
7790
7777
7810
7918
7879
8043
7889
7838
7922
7766
7823
7832
7816
7714
7790
7773
7856
7921
7916
7922
7722
7802
7811
7975
7919
7942
7867
7954
7895
8016
7802
7797
7872
7684
7883
7845
7919
7867
7843
7937
7859
7844
7504
7769
7747
7862
7788
7847
7909
7832
7812
7773
7641
7647
7905
7803
7875
7816
7877
7871
7768
7958
7815
7827
7902
7840
7818
7904
7864
7840
7901
7964
7789
7935
7843
7912
7872
7905
7953
7741
7929
